c This file was generated with the constraints_to_cnf module in this project.
c Starting from file 'constraints.txt'.
c There are 25 variables present in the constraints, and 45 total variables, given by the shape [1, 45].
c
p cnf 45 52
1 2 0
16 18 0
18 37 0
18 5 0
18 43 0
3 4 0
21 22 0
21 4 0
24 5 0
24 41 0
26 45 0
5 42 0
41 42 0
44 45 0
12 -16 0
13 -8 0
16 -12 0
16 -37 0
16 -5 0
16 -43 0
18 -24 0
18 -42 0
3 -21 0
21 -3 0
24 -18 0
24 -42 0
26 -32 0
26 -44 0
26 -10 0
27 -34 0
32 -26 0
34 -27 0
36 -5 0
36 -41 0
37 -16 0
37 -5 0
37 -41 0
37 -43 0
5 -16 0
5 -36 0
5 -37 0
5 -41 0
41 -36 0
41 -37 0
41 -5 0
42 -18 0
42 -24 0
43 -16 0
43 -37 0
44 -26 0
8 -13 0
10 -26 0

